p tw 40 98
0 1
0 27
0 24
0 12
0 38
0 35
0 17
0 7
1 6
1 22
1 5
1 35
1 8
1 23
2 3
2 30
2 17
2 7
2 36
2 12
3 29
3 28
4 5
4 34
4 7
5 30
5 7
5 11
5 33
5 25
6 12
6 7
6 11
6 24
6 25
7 8
7 29
7 20
7 10
8 9
8 26
8 33
8 17
8 24
9 30
10 11
10 23
11 16
11 19
11 23
11 33
11 38
11 31
12 21
12 29
13 14
13 29
13 35
13 34
14 23
14 30
14 28
14 20
14 22
15 16
15 18
15 24
15 17
15 20
15 37
16 30
16 27
16 34
17 18
18 25
18 37
19 20
19 35
19 28
20 22
21 31
21 26
21 33
21 29
21 23
22 23
22 28
22 27
22 37
23 32
23 35
24 25
26 31
26 36
28 32
29 30
29 39
30 36
